Gurobi Optimizer version 9.1.2 build v9.1.2rc0 (linux64)
Thread count: 36 physical cores, 72 logical processors, using up to 32 threads
Optimize a model with 12 rows, 57 columns and 590 nonzeros
Model fingerprint: 0xf32eec78
Model has 47 quadratic constraints
Coefficient statistics:
  Matrix range     [2e-05, 3e+00]
  QMatrix range    [1e+00, 1e+00]
  QLMatrix range   [1e+00, 1e+00]
  Objective range  [8e-03, 7e-01]
  Bounds range     [1e+00, 1e+00]
  RHS range        [1e+00, 1e+00]
Presolve removed 9 rows and 0 columns

Continuous model is non-convex -- solving as a MIP.

Presolve removed 9 rows and 0 columns
Presolve time: 0.00s
Presolved: 189 rows, 57 columns, 443 nonzeros
Presolved model has 47 bilinear constraint(s)
Variable types: 57 continuous, 0 integer (0 binary)

Root relaxation: objective -1.743721e+00, 44 iterations, 0.00 seconds

    Nodes    |    Current Node    |     Objective Bounds      |     Work
 Expl Unexpl |  Obj  Depth IntInf | Incumbent    BestBd   Gap | It/Node Time

     0     0   -1.74372    0   38          -   -1.74372      -     -    0s
H    0     0                       0.6147548   -1.74372   384%     -    0s
     0     0   -1.64739    0    1    0.61475   -1.64739   368%     -    0s
H    0     0                      -1.6450460   -1.64739  0.14%     -    0s
     0     0     cutoff    0        -1.64505   -1.64505  0.00%     -    0s

Cutting planes:
  RLT: 25
  BQP: 3

Explored 1 nodes (76 simplex iterations) in 0.01 seconds
Thread count was 32 (of 72 available processors)

Solution count 2: -1.64505 0.614755 
No other solutions better than -1.64505

Optimal solution found (tolerance 1.00e-04)
Best objective -1.645045978473e+00, best bound -1.645045978473e+00, gap 0.0000%

User-callback calls 78, time in user-callback 0.00 sec
Gurobi Optimizer version 9.1.2 build v9.1.2rc0 (linux64)
Thread count: 36 physical cores, 72 logical processors, using up to 32 threads
Optimize a model with 60 rows, 300 columns and 15500 nonzeros
Model fingerprint: 0x93dbe99f
Model has 250 quadratic constraints
Coefficient statistics:
  Matrix range     [1e-06, 4e+00]
  QMatrix range    [1e+00, 1e+00]
  QLMatrix range   [1e+00, 1e+00]
  Objective range  [4e-04, 2e+00]
  Bounds range     [1e+00, 1e+00]
  RHS range        [1e+00, 1e+00]
Presolve removed 9 rows and 0 columns

Continuous model is non-convex -- solving as a MIP.

Presolve removed 9 rows and 0 columns
Presolve time: 0.01s
Presolved: 1051 rows, 300 columns, 14762 nonzeros
Presolved model has 250 bilinear constraint(s)
Variable types: 300 continuous, 0 integer (0 binary)

Root relaxation: objective -3.372041e+01, 331 iterations, 0.02 seconds

    Nodes    |    Current Node    |     Objective Bounds      |     Work
 Expl Unexpl |  Obj  Depth IntInf | Incumbent    BestBd   Gap | It/Node Time

     0     0  -33.72041    0  199          -  -33.72041      -     -    0s
     0     0  -30.65238    0  156          -  -30.65238      -     -    0s
     0     0  -30.02779    0  167          -  -30.02779      -     -    0s
     0     0  -29.97797    0  143          -  -29.97797      -     -    0s
     0     0  -29.97612    0  133          -  -29.97612      -     -    0s
H    0     0                     -23.5371427  -29.97612  27.4%     -    0s
H    0     0                     -24.3059871  -29.97612  23.3%     -    0s
     0     2  -29.97612    0  133  -24.30599  -29.97612  23.3%     -    0s
* 1746  1662              45     -24.3060365  -28.24185  16.2%  55.7    2s
* 1748  1662              46     -24.3060555  -28.24185  16.2%  55.7    2s
* 1749  1662              46     -24.3060633  -28.24185  16.2%  55.6    2s
* 1868  1804              72     -24.4034928  -28.24185  15.7%  53.7    2s
* 1872  1804              75     -24.4035820  -28.24185  15.7%  53.6    2s
* 2033  1899              75     -24.4035820  -28.24185  15.7%  51.2    2s
* 2110  1901              62     -25.1669178  -28.24185  12.2%  50.2    2s
* 2581  1921              62     -26.1953664  -28.24185  7.81%  47.7    2s
* 4688  1341             106     -26.2161813  -28.13762  7.33%  56.2    4s
* 4805  1281             104     -26.2161902  -28.13762  7.33%  56.0    4s
* 5127  1305              80     -26.3433303  -28.13762  6.81%  55.4    4s
* 5254  1228              81     -26.3433336  -28.13762  6.81%  55.1    4s
* 5255  1181              82     -26.3433367  -28.13762  6.81%  55.2    4s
  5986  1381  -27.79946   21  167  -26.34334  -28.13762  6.81%  54.1    5s
* 5995  1381              74     -26.3461954  -28.13762  6.80%  54.1    5s
* 5998  1381              76     -26.3462963  -28.13762  6.80%  54.1    5s
* 6128  1381              94     -26.7721149  -28.13762  5.10%  53.7    5s
* 6129  1381              94     -26.7721169  -28.13762  5.10%  53.7    5s
* 6130  1381              93     -26.7721194  -28.13762  5.10%  53.7    5s
* 6804  1549             104     -26.7921528  -28.13762  5.02%  53.3    5s
* 6904  1658              82     -26.7921571  -28.13762  5.02%  53.2    5s
* 7113  1775              82     -26.7921649  -28.13762  5.02%  52.9    5s
* 7116  1775              82     -26.7921650  -28.13762  5.02%  52.9    5s
* 7155  1775              82     -26.8241379  -28.13762  4.90%  52.7    5s
* 7157  1775              83     -26.8241825  -28.13762  4.90%  52.7    5s
* 7158  1775              83     -26.8241825  -28.13762  4.90%  52.7    5s
* 7392  1784              83     -26.8241827  -28.13762  4.90%  52.3    5s
* 7801  1795              66     -26.9237592  -28.13762  4.51%  52.0    5s
* 8313  1848              57     -26.9242224  -28.01228  4.04%  52.3    6s
* 8543  1848              64     -26.9249663  -28.01228  4.04%  52.4    6s
* 8545  1848              65     -26.9250123  -28.01228  4.04%  52.4    6s
* 8546  1848              65     -26.9250134  -28.01228  4.04%  52.4    6s
* 8600  1848              55     -26.9268598  -28.01228  4.03%  52.2    6s
* 8875  1864              61     -26.9269219  -28.01228  4.03%  52.1    6s
* 8877  1864              62     -26.9269250  -28.01228  4.03%  52.1    6s
* 8879  1864              60     -26.9269363  -28.01228  4.03%  52.0    6s
* 9340  2005              63     -26.9278372  -27.58894  2.46%  51.7    6s
* 9346  2005              64     -26.9278699  -27.58894  2.45%  51.6    6s
* 9347  2005              64     -26.9278708  -27.58894  2.45%  51.6    6s
*10238  2232              69     -27.2470600  -27.49268  0.90%  49.7    6s
*11111  1447              67     -27.2470729  -27.44790  0.74%  47.9    7s
*11379  1298              70     -27.2477861  -27.39730  0.55%  47.1    7s
*11380  1298              70     -27.2477863  -27.39730  0.55%  47.1    7s
*11381  1298              69     -27.2477915  -27.39730  0.55%  47.1    7s
*11716  1298              65     -27.2478066  -27.38051  0.49%  46.3    7s
*12017  1313              64     -27.2478124  -27.38051  0.49%  45.4    7s
*12178  1313              58     -27.2479752  -27.35192  0.38%  45.0    7s
*12318  1313              67     -27.2480015  -27.35192  0.38%  44.5    7s
*12774  1313              55     -27.2480072  -27.35192  0.38%  43.2    7s
*12776  1313              56     -27.2480108  -27.35192  0.38%  43.2    7s
*12913  1619              64     -27.2480584  -27.35192  0.38%  42.8    7s
*12932  1619              68     -27.2485008  -27.35192  0.38%  42.7    7s
*13162  1619              66     -27.2497515  -27.35192  0.37%  42.1    7s
*13308  1619              58     -27.2500918  -27.35192  0.37%  41.7    7s
*13635  1619              62     -27.2521817  -27.35192  0.37%  40.9    7s
*13681  1833              81     -27.2523960  -27.30027  0.18%  40.8    7s
*13682  1833              81     -27.2524002  -27.30027  0.18%  40.8    7s
*13684  1833              80     -27.2524020  -27.30027  0.18%  40.8    7s
*13851  1833              73     -27.2524238  -27.29179  0.14%  40.4    7s
*13856  1833              75     -27.2524273  -27.29179  0.14%  40.4    7s
*13860  1833              77     -27.2524276  -27.29179  0.14%  40.4    7s
*13861  1833              77     -27.2524280  -27.29179  0.14%  40.4    7s
*13862  1833              76     -27.2524285  -27.29179  0.14%  40.4    7s
*13863  1833              75     -27.2524291  -27.29179  0.14%  40.4    7s
*13994  1833              57     -27.2526741  -27.29179  0.14%  40.1    7s
*13996  1833              58     -27.2527466  -27.29179  0.14%  40.1    7s
*13997  1833              58     -27.2527468  -27.29179  0.14%  40.1    7s
*14190  1833              72     -27.2549764  -27.29179  0.14%  39.6    7s
*14192  1833              73     -27.2550261  -27.29179  0.13%  39.6    7s
*14546  1680              63     -27.2551674  -27.28121  0.10%  38.8    7s
*14547  1680              63     -27.2551695  -27.28121  0.10%  38.8    7s
*14549  1680              63     -27.2551779  -27.28121  0.10%  38.8    7s
*14550  1680              63     -27.2551791  -27.28121  0.10%  38.8    7s
*14886  1680              69     -27.2556839  -27.27646  0.08%  38.1    7s
*15079  1680              61     -27.2557209  -27.27646  0.08%  37.6    7s
*15511  1795              68     -27.2560589  -27.27646  0.07%  36.7    7s
*15512  1795              68     -27.2560611  -27.27646  0.07%  36.7    7s
*15514  1795              68     -27.2560750  -27.27646  0.07%  36.7    7s
*15520  1795              68     -27.2560845  -27.27646  0.07%  36.7    7s
*15522  1795              69     -27.2560886  -27.27646  0.07%  36.7    7s
*15723  1795              70     -27.2564980  -27.27646  0.07%  36.3    7s
*15724  1795              70     -27.2564988  -27.27646  0.07%  36.3    7s
*15760  1795              63     -27.2572584  -27.27646  0.07%  36.2    7s
*15761  1795              63     -27.2572586  -27.27646  0.07%  36.2    7s
*15763  1795              61     -27.2575344  -27.27646  0.07%  36.2    7s
*16829  1191              73     -27.2577318  -27.26127  0.01%  34.1    7s
*16860  1191              58     -27.2577631  -27.26127  0.01%  34.1    7s
*17334  1191              61     -27.2579619  -27.26127  0.01%  33.2    7s
*17957   795              73     -27.2580676  -27.25895  0.00%  32.1    8s
*17958   795              73     -27.2580698  -27.25895  0.00%  32.1    8s
*17961   795              73     -27.2580709  -27.25895  0.00%  32.1    8s
*18799   795              69     -27.2580877  -27.25826  0.00%  30.8    8s
*18802   795              69     -27.2580886  -27.25826  0.00%  30.7    8s

Explored 19058 nodes (578938 simplex iterations) in 8.02 seconds
Thread count was 32 (of 72 available processors)

Solution count 10: -27.2581 -27.2581 -27.2581 ... -27.2565

Optimal solution found (tolerance 1.00e-04)
Best objective -2.725808861771e+01, best bound -2.725826223872e+01, gap 0.0006%

User-callback calls 39343, time in user-callback 0.01 sec



objective value: -27.258088617710087
objective bound: -27.2582622387182
x_opt: [0.0, 1.0, 1.0, 0.0, 0.0, 0.0, 1.0, 1.0, 0.0, 0.0, 0.11606066171361636, 0.3228629762575609, 0.0, 1.0, 1.0, 1.0, 0.0, 1.0, 0.0, 0.0, 0.0, 1.0, 1.0, 1.0, 0.0, 1.0, 1.0, 1.0, 0.0, 0.7510610187213455, 0.9073260514897644, 0.7074703324143136, 0.0, 0.28909645273711554, 1.0, 1.0, 0.959282086683896, 0.9999766728561699, 0.6041953603550733, 1.0, 0.9998378530039439, 0.43636584567641273, 1.0, 0.0, 0.0, 0.784595746495052, 5.094376308022711e-5, 0.0, 0.0, 1.0]
GUROBI solution time: 8.023798942565918

